20
50.0
0 19 6.56 37.25
1 18 8.31 24.89
2 17 8.48 26.92
3 16 8.16 28.46
4 15 7.65 29.23
5 14 7.24 31.27
6 13 7.07 30.68
7 12 7.27 25.92
8 11 8.55 25.98
9 10 7.06 37.29
10 9 7.06 33.75
11 8 7.93 26.18
12 7 6.14 30.93
13 6 7.97 25.31
14 5 6.6 31.21
15 4 6.02 36.18
16 3 6.69 32.07
17 2 9.52 18.52
18 1 6.13 35.53
